robust/generate/spp_dkp_Lefebvre_et_al_2026/src/shortest_path_2_7.kp
49
69

[10.38 8.52]

[69 2]
